start

title "TMS NMR PBE0/def2-tzvpd"

echo
geometry tms
Si   0.00000000     0.00000000     0.00000000
C    1.08400099     1.08400099     1.08400099
H    1.72826560     1.72826560     0.47927400
H    1.72826560     0.47927400     1.72826560
H    0.47927400     1.72826560     1.72826560
C   -1.08400099    -1.08400099     1.08400099
H   -1.72826560    -0.47927400     1.72826560
H   -1.72826560    -1.72826560     0.47927400
H   -0.47927400    -1.72826560     1.72826560
C    1.08400099    -1.08400099    -1.08400099
H    0.47927400    -1.72826560    -1.72826560
H    1.72826560    -0.47927400    -1.72826560
H    1.72826560    -1.72826560    -0.47927400
C   -1.08400099     1.08400099    -1.08400099
H   -1.72826560     0.47927400    -1.72826560
H   -1.72826560     1.72826560    -0.47927400
H   -0.47927400     1.72826560    -1.72826560
end

basis spherical
* library 6-311G
end

dft
direct
xc pbe0
noprint "final vectors analysis" multipole
end

set geometry tms
task dft optimize
property
  dipole
  mulliken
  shielding
end
task dft property
